p cnf 1026 2427
a 1 2 3 4 5 6 7 8 25 26 27 28 29 30 31 32 33 34 35 36 37 38 39 40 41 42 43 44 45 46 47 48 49 50 51 52 53 54 55 56 57 58 59 60 61 62 63 64 65 66 67 68 69 70 71 72 73 74 75 76 77 78 79 80 81 82 83 84 85 86 87 88 89 90 0
e 9 10 11 12 13 14 15 16 17 18 19 20 21 22 23 24 91 92 93 94 95 96 97 98 99 100 101 102 103 104 105 106 107 108 109 110 111 112 113 114 115 116 117 118 119 120 121 122 123 124 125 126 127 128 129 130 131 132 133 134 135 136 137 138 139 140 141 142 143 144 145 146 147 148 149 150 151 152 153 154 155 156 157 158 159 160 161 162 163 164 165 166 167 168 169 170 171 172 173 174 175 176 177 178 179 180 181 182 183 184 185 186 187 188 189 190 191 192 193 194 195 196 197 198 199 200 201 202 203 204 205 206 207 208 209 210 211 212 213 214 215 216 217 218 219 220 221 222 223 224 225 226 227 228 229 230 231 232 233 234 235 236 237 238 239 240 241 242 243 244 245 246 247 248 249 250 251 252 253 254 255 256 257 258 259 260 261 262 263 264 265 266 267 268 269 270 271 272 273 274 275 276 277 278 279 280 281 282 283 284 285 286 287 288 289 290 291 292 293 294 295 296 297 298 299 300 301 302 303 304 305 306 307 308 309 310 311 312 313 314 315 316 317 318 319 320 321 322 323 324 325 326 327 328 329 330 331 332 333 334 335 336 337 338 339 340 341 342 343 344 345 346 347 348 349 350 351 352 353 354 355 356 357 358 359 360 361 362 363 364 365 366 367 368 369 370 371 372 373 374 375 376 377 378 379 380 381 382 383 384 385 386 387 388 389 390 391 392 393 394 395 396 397 398 399 400 401 402 403 404 405 406 407 408 409 410 411 412 413 414 415 416 417 418 419 420 421 422 423 424 425 426 427 428 429 430 431 432 433 434 435 436 437 438 439 440 441 442 443 444 445 446 447 448 449 450 451 452 453 454 455 456 457 458 459 460 461 462 463 464 465 466 467 468 469 470 471 472 473 474 475 476 477 478 479 480 481 482 483 484 485 486 487 488 489 490 491 492 493 494 495 496 497 498 499 500 501 502 503 504 505 506 507 508 509 510 511 512 513 514 515 516 517 518 519 520 521 522 523 524 525 526 527 528 529 530 531 532 533 534 535 536 537 538 539 540 541 542 543 544 545 546 547 548 549 550 551 552 553 554 555 556 557 558 559 560 561 562 563 564 565 566 567 568 569 570 571 572 573 574 575 576 577 578 579 580 581 582 583 584 585 586 587 588 589 590 591 592 593 594 595 596 597 598 599 600 601 602 603 604 605 606 607 608 609 610 611 612 613 614 615 616 617 618 619 620 621 622 623 624 625 626 627 628 629 630 631 632 633 634 635 636 637 638 639 640 641 642 643 644 645 646 647 648 649 650 651 652 653 654 655 656 657 658 659 660 661 662 663 664 665 666 667 668 669 670 671 672 673 674 675 676 677 678 679 680 681 682 683 684 685 686 687 688 689 690 691 692 693 694 695 696 697 698 699 700 701 702 703 704 705 706 707 708 709 710 711 712 713 714 715 716 717 718 719 720 721 722 723 724 725 726 727 728 729 730 731 732 733 734 735 736 737 738 739 740 741 742 743 744 745 746 747 748 749 750 751 752 753 754 755 756 757 758 759 760 761 762 763 764 765 766 767 768 769 770 771 772 773 774 775 776 777 778 779 780 781 782 783 784 785 786 787 788 789 790 791 792 793 794 795 796 797 798 799 800 801 802 803 804 805 806 807 808 809 810 811 812 813 814 815 816 817 818 819 820 821 822 823 824 825 826 827 828 829 830 831 832 833 834 835 836 837 838 839 840 841 842 843 844 845 846 847 848 849 850 851 852 853 854 855 856 857 858 859 860 861 862 863 864 865 866 867 868 869 870 871 872 873 874 875 876 877 878 879 880 881 882 883 884 885 886 887 888 889 890 891 892 893 894 895 896 897 898 899 900 901 902 903 904 905 906 907 908 909 910 911 912 913 914 915 916 917 918 919 920 921 922 923 924 925 926 927 928 929 930 931 932 933 934 935 936 937 938 939 940 941 942 943 944 945 946 947 948 949 950 951 952 953 954 955 956 957 958 959 960 961 962 963 964 965 966 967 968 969 970 971 972 973 974 975 976 977 978 979 980 981 982 983 984 985 986 987 988 989 990 991 992 993 994 995 996 997 998 999 1000 1001 1002 1003 1004 1005 1006 1007 1008 1009 1010 1011 1012 1013 1014 1015 1016 1017 1018 1019 1020 1021 1022 1023 1024 1025 1026 0
-1026 0
1026 -686 0
1026 -775 0
1026 -798 0
1026 -821 0
1026 -830 0
1026 -839 0
1026 -848 0
1026 -857 0
1026 -900 0
1026 -941 0
1026 -950 0
1026 -959 0
1026 -968 0
1026 -977 0
1026 -986 0
1026 -1025 0
5 4 6 3 2 1 -685 -684 -1024 1025 0
1024 -1005 0
1024 -1023 0
-681 -897 -938 -772 -1022 1023 0
1022 -1021 0
1022 -443 0
1022 -444 0
1022 -445 0
1022 -446 0
-1020 -1015 -1010 1021 0
1020 -1016 0
1020 -435 0
1020 -436 0
1020 -607 0
1020 -1017 0
1020 -609 0
1020 -1018 0
1020 -63 0
1020 -62 0
1020 -61 0
1020 -60 0
1020 -59 0
1020 -58 0
1020 -57 0
1020 -1019 0
-9 -30 1019 0
-9 -68 1018 0
-27 9 1017 0
9 -65 1016 0
1015 -1011 0
1015 -428 0
1015 -599 0
1015 -1012 0
1015 -1013 0
1015 -431 0
1015 -603 0
1015 -50 0
1015 -49 0
1015 -48 0
1015 -47 0
1015 -46 0
1015 -45 0
1015 -44 0
1015 -1014 0
-9 -28 1014 0
-26 9 1013 0
-9 -55 1012 0
9 -52 1011 0
1010 -1006 0
1010 -418 0
1010 -419 0
1010 -594 0
1010 -1007 0
1010 -1008 0
1010 -596 0
1010 -1009 0
1010 -37 0
1010 -36 0
1010 -35 0
1010 -34 0
1010 -33 0
1010 -32 0
1010 -31 0
-25 9 1009 0
-9 -29 1008 0
-39 9 1007 0
-9 -42 1006 0
13 9 24 23 22 21 20 19 18 17 16 15 14 12 11 10 -1004 1005 0
1004 -1003 0
1004 -728 0
1004 -918 0
1004 -876 0
-150 -149 -148 -147 -1002 1003 0
1002 -991 0
1002 -996 0
1002 -1001 0
-1000 61 63 62 60 59 58 57 -999 -313 -998 -311 -140 -139 -997 1001 0
1000 30 0
1000 9 0
999 68 0
999 9 0
998 27 0
998 -9 0
997 65 0
997 -9 0
-995 50 49 48 46 45 47 44 -307 -135 -994 -993 -303 -132 -992 996 0
995 28 0
995 9 0
994 26 0
994 -9 0
993 55 0
993 9 0
992 52 0
992 -9 0
32 31 33 35 37 36 34 -990 -300 -989 -988 -298 -123 -122 -987 991 0
990 25 0
990 -9 0
989 29 0
989 9 0
988 39 0
988 -9 0
987 42 0
987 9 0
5 4 8 3 2 1 -685 -684 -985 986 0
985 -981 0
985 -984 0
-681 -755 -754 -753 -770 -769 -983 -982 984 0
983 -761 0
983 -813 0
982 -767 0
982 -658 0
13 9 24 23 22 21 20 19 18 17 16 15 14 12 11 10 -980 981 0
980 -978 0
980 -979 0
980 -725 0
980 -726 0
980 -709 0
980 -710 0
980 -711 0
-802 -717 979 0
-362 -723 978 0
5 6 8 3 2 1 -685 -684 -976 977 0
976 -972 0
976 -975 0
-681 -666 -812 -810 -665 -664 -974 -973 975 0
974 -817 0
974 -658 0
973 -677 0
973 -771 0
13 9 24 23 22 21 20 19 18 17 16 15 14 12 11 10 -971 972 0
971 -969 0
971 -970 0
971 -368 0
971 -369 0
971 -799 0
971 -801 0
971 -370 0
-362 -806 970 0
-727 -381 969 0
7 5 6 8 3 1 -685 -684 -967 968 0
967 -963 0
967 -966 0
-681 -671 -670 -669 -816 -815 -965 -964 966 0
965 -677 0
965 -767 0
964 -790 0
964 -813 0
13 9 24 23 22 21 20 19 18 17 16 15 14 12 11 10 -962 963 0
962 -960 0
962 -961 0
962 -804 0
962 -805 0
962 -373 0
962 -374 0
962 -375 0
-723 -381 961 0
-802 -779 960 0
7 5 4 6 3 1 -685 -684 -958 959 0
958 -954 0
958 -957 0
-681 -568 -567 -550 -789 -787 -956 -955 957 0
956 -817 0
956 -794 0
955 -767 0
955 -590 0
13 9 24 23 22 21 20 19 18 17 16 15 14 12 11 10 -953 954 0
953 -951 0
953 -952 0
953 -776 0
953 -778 0
953 -254 0
953 -271 0
953 -272 0
-783 -806 952 0
-294 -723 951 0
7 5 4 8 3 1 -685 -684 -949 950 0
949 -945 0
949 -948 0
-681 -750 -749 -748 -766 -765 -947 -946 948 0
947 -817 0
947 -761 0
946 -771 0
946 -790 0
13 9 24 23 22 21 20 19 18 17 16 15 14 12 11 10 -944 945 0
944 -942 0
944 -943 0
944 -721 0
944 -722 0
944 -704 0
944 -705 0
944 -706 0
-717 -806 943 0
-779 -727 942 0
7 4 6 8 3 1 -685 -684 -940 941 0
940 -920 0
940 -939 0
-681 -938 -896 -768 -937 939 0
938 -658 0
938 -790 0
937 -936 0
937 -443 0
937 -444 0
937 -445 0
937 -446 0
-935 -930 -925 936 0
935 -931 0
935 -932 0
935 -433 0
935 -410 0
935 -933 0
935 -437 0
935 -934 0
935 -412 0
935 -81 0
935 -77 0
935 -63 0
935 -62 0
935 -61 0
935 -60 0
935 -57 0
19 -65 934 0
-27 19 933 0
-19 -68 932 0
-19 -30 931 0
930 -926 0
930 -927 0
930 -928 0
930 -400 0
930 -424 0
930 -425 0
930 -929 0
930 -403 0
930 -80 0
930 -74 0
930 -50 0
930 -49 0
930 -48 0
930 -47 0
930 -44 0
-26 19 929 0
-19 -55 928 0
-19 -28 927 0
19 -52 926 0
925 -921 0
925 -922 0
925 -390 0
925 -415 0
925 -923 0
925 -924 0
925 -393 0
925 -421 0
925 -79 0
925 -71 0
925 -37 0
925 -36 0
925 -35 0
925 -34 0
925 -31 0
-19 -42 924 0
-25 19 923 0
-19 -29 922 0
-39 19 921 0
13 9 24 23 22 21 20 19 18 17 16 15 14 12 11 10 -919 920 0
919 -917 0
919 -724 0
919 -875 0
919 -918 0
-779 -362 918 0
-150 -149 -148 -147 -916 917 0
916 -905 0
916 -910 0
916 -915 0
61 81 63 62 60 57 77 -116 -914 -141 -913 -114 -137 -912 -911 915 0
914 65 0
914 -19 0
913 27 0
913 -19 0
912 68 0
912 19 0
911 30 0
911 19 0
50 49 48 74 47 80 44 -107 -909 -129 -128 -104 -908 -907 -906 910 0
909 26 0
909 -19 0
908 55 0
908 19 0
907 28 0
907 19 0
906 52 0
906 -19 0
31 35 37 36 34 79 71 -125 -97 -904 -903 -119 -94 -902 -901 905 0
904 42 0
904 19 0
903 25 0
903 -19 0
902 29 0
902 19 0
901 39 0
901 -19 0
7 5 6 8 3 2 -685 -684 -899 900 0
899 -878 0
899 -898 0
-681 -897 -896 -762 -895 898 0
897 -813 0
897 -794 0
896 -663 0
896 -817 0
895 -894 0
895 -443 0
895 -444 0
895 -445 0
895 -446 0
-893 -888 -883 894 0
893 -889 0
893 -890 0
893 -891 0
893 -892 0
893 -520 0
893 -521 0
893 -409 0
893 -90 0
893 -87 0
893 -411 0
893 -81 0
893 -77 0
893 -63 0
893 -62 0
893 -57 0
-24 -68 892 0
-24 -30 891 0
24 -65 890 0
-27 24 889 0
888 -884 0
888 -885 0
888 -886 0
888 -887 0
888 -513 0
888 -401 0
888 -402 0
888 -89 0
888 -516 0
888 -86 0
888 -80 0
888 -74 0
888 -50 0
888 -49 0
888 -44 0
-24 -55 887 0
-24 -28 886 0
24 -52 885 0
-26 24 884 0
883 -879 0
883 -880 0
883 -881 0
883 -528 0
883 -391 0
883 -392 0
883 -530 0
883 -88 0
883 -882 0
883 -85 0
883 -79 0
883 -71 0
883 -37 0
883 -36 0
883 -31 0
-25 24 882 0
-24 -42 881 0
-24 -29 880 0
-39 24 879 0
13 9 24 23 22 21 20 19 18 17 16 15 14 12 11 10 -877 878 0
877 -874 0
877 -718 0
877 -875 0
877 -876 0
-783 -802 876 0
-806 -367 875 0
-150 -149 -148 -147 -873 874 0
873 -862 0
873 -867 0
873 -872 0
81 63 62 57 77 -115 90 87 -113 -225 -224 -871 -870 -869 -868 872 0
871 68 0
871 24 0
870 30 0
870 24 0
869 65 0
869 -24 0
868 27 0
868 -24 0
50 49 74 86 80 44 -220 89 -106 -105 -217 -866 -865 -864 -863 867 0
866 55 0
866 24 0
865 28 0
865 24 0
864 52 0
864 -24 0
863 26 0
863 -24 0
31 37 36 79 71 85 -861 88 -234 -96 -95 -232 -860 -859 -858 862 0
861 25 0
861 -24 0
860 42 0
860 24 0
859 29 0
859 24 0
858 39 0
858 -24 0
7 4 6 8 3 2 -685 -684 -856 857 0
856 -852 0
856 -855 0
-681 -649 -648 -631 -662 -661 -854 -853 855 0
854 -763 0
854 -761 0
853 -658 0
853 -794 0
13 9 24 23 22 21 20 19 18 17 16 15 14 12 11 10 -851 852 0
851 -849 0
851 -850 0
851 -365 0
851 -366 0
851 -335 0
851 -352 0
851 -353 0
-717 -719 850 0
-783 -362 849 0
7 5 4 6 3 2 -685 -684 -847 848 0
847 -843 0
847 -846 0
-681 -509 -793 -792 -492 -447 -845 -844 846 0
845 -663 0
845 -790 0
844 -761 0
844 -590 0
13 9 24 23 22 21 20 19 18 17 16 15 14 12 11 10 -842 843 0
842 -840 0
842 -841 0
842 -151 0
842 -196 0
842 -781 0
842 -782 0
842 -213 0
-779 -367 841 0
-294 -717 840 0
7 5 4 8 3 2 -685 -684 -838 839 0
838 -834 0
838 -837 0
-681 -760 -759 -758 -757 -752 -836 -835 837 0
836 -663 0
836 -767 0
835 -771 0
835 -794 0
13 9 24 23 22 21 20 19 18 17 16 15 14 12 11 10 -833 834 0
833 -831 0
833 -832 0
833 -708 0
833 -713 0
833 -714 0
833 -715 0
833 -716 0
-723 -367 832 0
-783 -727 831 0
4 6 8 3 2 1 -685 -684 -829 830 0
829 -825 0
829 -828 0
-681 -657 -656 -651 -630 -613 -827 -826 828 0
827 -663 0
827 -813 0
826 -763 0
826 -771 0
13 9 24 23 22 21 20 19 18 17 16 15 14 12 11 10 -824 825 0
824 -822 0
824 -823 0
824 -317 0
824 -334 0
824 -355 0
824 -360 0
824 -361 0
-802 -367 823 0
-727 -719 822 0
7 5 6 8 2 1 -685 -684 -820 821 0
820 -809 0
820 -819 0
-681 -676 -675 -674 -673 -668 -818 -814 819 0
818 -763 0
818 -817 0
-671 -670 -669 -816 -815 817 0
816 -811 0
816 -566 0
816 -443 0
816 -444 0
816 -445 0
816 -446 0
815 -667 0
815 -442 0
815 -443 0
815 -444 0
815 -445 0
815 -446 0
814 -590 0
814 -813 0
-666 -812 -810 -665 -664 813 0
812 -629 0
812 -811 0
812 -443 0
812 -444 0
812 -445 0
812 -446 0
-676 -675 -674 811 0
810 -647 0
810 -672 0
810 -443 0
810 -444 0
810 -445 0
810 -446 0
13 9 24 23 22 21 20 19 18 17 16 15 14 12 11 10 -808 809 0
808 -803 0
808 -807 0
808 -372 0
808 -377 0
808 -378 0
808 -379 0
808 -380 0
-806 -719 807 0
806 -804 0
806 -805 0
806 -373 0
806 -374 0
806 -375 0
-150 -149 -148 -147 -270 -800 805 0
-150 -149 -148 -147 -146 -371 804 0
-802 -294 803 0
802 -368 0
802 -369 0
802 -799 0
802 -801 0
802 -370 0
-150 -149 -148 -147 -800 -333 801 0
800 -378 0
800 -379 0
800 -380 0
-150 -149 -148 -147 -376 -351 799 0
7 5 4 6 2 1 -685 -684 -797 798 0
797 -786 0
797 -796 0
-681 -589 -588 -587 -586 -533 -795 -791 796 0
795 -677 0
795 -794 0
-509 -793 -792 -492 -447 794 0
793 -469 0
793 -788 0
793 -443 0
793 -444 0
793 -445 0
793 -446 0
792 -414 0
792 -569 0
792 -443 0
792 -444 0
792 -445 0
792 -446 0
791 -763 0
791 -790 0
-568 -567 -550 -789 -787 790 0
789 -566 0
789 -788 0
789 -443 0
789 -444 0
789 -445 0
789 -446 0
-589 -588 -587 788 0
787 -510 0
787 -549 0
787 -443 0
787 -444 0
787 -445 0
787 -446 0
13 9 24 23 22 21 20 19 18 17 16 15 14 12 11 10 -785 786 0
785 -780 0
785 -784 0
785 -237 0
785 -290 0
785 -291 0
785 -292 0
785 -293 0
-783 -381 784 0
783 -151 0
783 -196 0
783 -781 0
783 -782 0
783 -213 0
-150 -149 -148 -147 -777 -173 782 0
-150 -149 -148 -147 -273 -118 781 0
-779 -719 780 0
779 -776 0
779 -778 0
779 -254 0
779 -271 0
779 -272 0
-150 -149 -148 -147 -777 -270 778 0
777 -291 0
777 -292 0
777 -293 0
-150 -149 -148 -147 -253 -214 776 0
7 5 4 8 2 1 -685 -684 -774 775 0
774 -730 0
774 -773 0
-681 -772 -768 -762 -747 773 0
772 -771 0
772 -590 0
-755 -754 -753 -770 -769 771 0
770 -764 0
770 -612 0
770 -443 0
770 -444 0
770 -445 0
770 -446 0
769 -751 0
769 -647 0
769 -443 0
769 -444 0
769 -445 0
769 -446 0
768 -763 0
768 -767 0
-750 -749 -748 -766 -765 767 0
766 -756 0
766 -442 0
766 -443 0
766 -444 0
766 -445 0
766 -446 0
765 -764 0
765 -549 0
765 -443 0
765 -444 0
765 -445 0
765 -446 0
-760 -759 -758 764 0
-654 -653 -652 -680 -679 763 0
762 -677 0
762 -761 0
-760 -759 -758 -757 -752 761 0
760 -469 0
760 -443 0
760 -444 0
760 -445 0
760 -446 0
759 -629 0
759 -508 0
759 -443 0
759 -444 0
759 -445 0
759 -446 0
758 -414 0
758 -566 0
758 -443 0
758 -444 0
758 -445 0
758 -446 0
757 -756 0
757 -508 0
757 -443 0
757 -444 0
757 -445 0
757 -446 0
-755 -754 -753 756 0
755 -629 0
755 -443 0
755 -444 0
755 -445 0
755 -446 0
754 -647 0
754 -566 0
754 -443 0
754 -444 0
754 -445 0
754 -446 0
753 -612 0
753 -469 0
753 -443 0
753 -444 0
753 -445 0
753 -446 0
752 -751 0
752 -414 0
752 -443 0
752 -444 0
752 -445 0
752 -446 0
-750 -749 -748 751 0
750 -566 0
750 -443 0
750 -444 0
750 -445 0
750 -446 0
749 -629 0
749 -442 0
749 -443 0
749 -444 0
749 -445 0
749 -446 0
748 -549 0
748 -469 0
748 -443 0
748 -444 0
748 -445 0
748 -446 0
747 -746 0
747 -443 0
747 -444 0
747 -445 0
747 -446 0
-745 -740 -735 746 0
745 -741 0
745 -742 0
745 -743 0
745 -484 0
745 -458 0
745 -459 0
745 -744 0
745 -488 0
745 -81 0
745 -77 0
745 -63 0
745 -62 0
745 -61 0
745 -60 0
745 -57 0
-14 -68 744 0
-14 -30 743 0
14 -65 742 0
-27 14 741 0
740 -736 0
740 -737 0
740 -738 0
740 -477 0
740 -480 0
740 -451 0
740 -452 0
740 -739 0
740 -80 0
740 -74 0
740 -50 0
740 -49 0
740 -48 0
740 -47 0
740 -44 0
-14 -55 739 0
-14 -28 738 0
14 -52 737 0
-26 14 736 0
735 -731 0
735 -732 0
735 -733 0
735 -734 0
735 -470 0
735 -473 0
735 -463 0
735 -467 0
735 -79 0
735 -71 0
735 -37 0
735 -36 0
735 -35 0
735 -34 0
735 -31 0
-14 -42 734 0
-14 -29 733 0
-39 14 732 0
-25 14 731 0
13 9 24 23 22 21 20 19 18 17 16 15 14 12 11 10 -729 730 0
729 -703 0
729 -718 0
729 -724 0
729 -728 0
-294 -727 728 0
727 -725 0
727 -726 0
727 -709 0
727 -710 0
727 -711 0
-150 -149 -148 -147 -316 -720 726 0
-150 -149 -148 -147 -351 -707 725 0
-723 -719 724 0
723 -721 0
723 -722 0
723 -704 0
723 -705 0
723 -706 0
-150 -149 -148 -147 -146 -712 722 0
-150 -149 -148 -147 -253 -720 721 0
720 -714 0
720 -715 0
720 -716 0
719 -383 0
719 -384 0
719 -356 0
719 -357 0
719 -358 0
-717 -381 718 0
717 -708 0
717 -713 0
717 -714 0
717 -715 0
717 -716 0
-150 -149 -148 -147 -173 716 0
-150 -149 -148 -147 -212 -333 715 0
-150 -149 -148 -147 -270 -118 714 0
-150 -149 -148 -147 -212 -712 713 0
712 -709 0
712 -710 0
712 -711 0
-150 -149 -148 -147 -333 711 0
-150 -149 -148 -147 -270 -351 710 0
-150 -149 -148 -147 -173 -316 709 0
-150 -149 -148 -147 -118 -707 708 0
707 -704 0
707 -705 0
707 -706 0
-150 -149 -148 -147 -270 706 0
-150 -149 -148 -147 -146 -333 705 0
-150 -149 -148 -147 -173 -253 704 0
-150 -149 -148 -147 -702 703 0
702 -691 0
702 -696 0
702 -701 0
61 81 63 62 60 57 77 -192 -700 -163 -162 -188 -699 -698 -697 701 0
700 68 0
700 14 0
699 30 0
699 14 0
698 65 0
698 -14 0
697 27 0
697 -14 0
50 49 48 74 47 80 44 -695 -156 -155 -184 -181 -694 -693 -692 696 0
695 55 0
695 14 0
694 28 0
694 14 0
693 52 0
693 -14 0
692 26 0
692 -14 0
31 35 37 36 34 79 71 -171 -167 -177 -174 -690 -689 -688 -687 691 0
690 42 0
690 14 0
689 29 0
689 14 0
688 39 0
688 -14 0
687 25 0
687 -14 0
7 4 6 8 2 1 -685 -684 -683 686 0
685 -7 0
685 -3 0
685 -2 0
685 -1 0
684 -8 0
684 -6 0
684 -5 0
684 -4 0
683 -386 0
683 -682 0
-681 -654 -653 -652 -680 -679 -678 -659 682 0
681 -24 0
681 -23 0
681 -22 0
681 -21 0
681 -20 0
681 -19 0
681 -18 0
681 -17 0
681 -16 0
681 -15 0
681 -14 0
681 -13 0
681 -12 0
681 -11 0
681 -10 0
681 -9 0
680 -650 0
680 -532 0
680 -443 0
680 -444 0
680 -445 0
680 -446 0
679 -660 0
679 -491 0
679 -443 0
679 -444 0
679 -445 0
679 -446 0
678 -663 0
678 -677 0
-676 -675 -674 -673 -668 677 0
676 -532 0
676 -443 0
676 -444 0
676 -445 0
676 -446 0
675 -612 0
675 -491 0
675 -443 0
675 -444 0
675 -445 0
675 -446 0
674 -549 0
674 -585 0
674 -443 0
674 -444 0
674 -445 0
674 -446 0
673 -672 0
673 -585 0
673 -443 0
673 -444 0
673 -445 0
673 -446 0
-671 -670 -669 672 0
671 -549 0
671 -443 0
671 -444 0
671 -445 0
671 -446 0
670 -612 0
670 -442 0
670 -443 0
670 -444 0
670 -445 0
670 -446 0
669 -566 0
669 -532 0
669 -443 0
669 -444 0
669 -445 0
669 -446 0
668 -667 0
668 -491 0
668 -443 0
668 -444 0
668 -445 0
668 -446 0
-666 -665 -664 667 0
666 -612 0
666 -443 0
666 -444 0
666 -445 0
666 -446 0
665 -647 0
665 -549 0
665 -443 0
665 -444 0
665 -445 0
665 -446 0
664 -629 0
664 -532 0
664 -443 0
664 -444 0
664 -445 0
664 -446 0
-649 -648 -631 -662 -661 663 0
662 -655 0
662 -469 0
662 -443 0
662 -444 0
662 -445 0
662 -446 0
661 -660 0
661 -508 0
661 -443 0
661 -444 0
661 -445 0
661 -446 0
-657 -630 -613 660 0
659 -590 0
659 -658 0
-657 -656 -651 -630 -613 658 0
657 -647 0
657 -443 0
657 -444 0
657 -445 0
657 -446 0
656 -655 0
656 -629 0
656 -443 0
656 -444 0
656 -445 0
656 -446 0
-654 -653 -652 655 0
654 -585 0
654 -443 0
654 -444 0
654 -445 0
654 -446 0
653 -647 0
653 -491 0
653 -443 0
653 -444 0
653 -445 0
653 -446 0
652 -414 0
652 -532 0
652 -443 0
652 -444 0
652 -445 0
652 -446 0
651 -650 0
651 -612 0
651 -443 0
651 -444 0
651 -445 0
651 -446 0
-649 -648 -631 650 0
649 -414 0
649 -443 0
649 -444 0
649 -445 0
649 -446 0
648 -647 0
648 -508 0
648 -443 0
648 -444 0
648 -445 0
648 -446 0
-646 -641 -636 647 0
646 -642 0
646 -643 0
646 -607 0
646 -410 0
646 -609 0
646 -412 0
646 -644 0
646 -645 0
646 -77 0
646 -76 0
646 -63 0
646 -62 0
646 -61 0
646 -60 0
646 -58 0
-11 -30 645 0
-27 11 644 0
-17 -68 643 0
17 -65 642 0
641 -400 0
641 -637 0
641 -638 0
641 -599 0
641 -639 0
641 -640 0
641 -403 0
641 -603 0
641 -74 0
641 -73 0
641 -50 0
641 -49 0
641 -48 0
641 -47 0
641 -45 0
-26 11 640 0
-11 -28 639 0
-17 -55 638 0
17 -52 637 0
636 -390 0
636 -632 0
636 -633 0
636 -634 0
636 -594 0
636 -393 0
636 -596 0
636 -635 0
636 -71 0
636 -70 0
636 -37 0
636 -36 0
636 -35 0
636 -34 0
636 -32 0
-11 -29 635 0
-17 -42 634 0
-39 17 633 0
-25 11 632 0
631 -469 0
631 -585 0
631 -443 0
631 -444 0
631 -445 0
631 -446 0
630 -629 0
630 -585 0
630 -443 0
630 -444 0
630 -445 0
630 -446 0
-628 -623 -618 629 0
628 -458 0
628 -607 0
628 -624 0
628 -625 0
628 -459 0
628 -626 0
628 -627 0
628 -609 0
628 -78 0
628 -77 0
628 -76 0
628 -63 0
628 -61 0
628 -60 0
628 -58 0
-13 -68 627 0
-10 -30 626 0
13 -65 625 0
-27 10 624 0
623 -599 0
623 -619 0
623 -451 0
623 -620 0
623 -452 0
623 -621 0
623 -622 0
623 -603 0
623 -75 0
623 -74 0
623 -73 0
623 -50 0
623 -48 0
623 -47 0
623 -45 0
-26 10 622 0
-13 -55 621 0
-10 -28 620 0
13 -52 619 0
618 -594 0
618 -614 0
618 -615 0
618 -463 0
618 -616 0
618 -617 0
618 -467 0
618 -596 0
618 -72 0
618 -71 0
618 -70 0
618 -37 0
618 -35 0
618 -34 0
618 -32 0
-13 -42 617 0
-10 -29 616 0
-39 13 615 0
-25 10 614 0
613 -612 0
613 -414 0
613 -443 0
613 -444 0
613 -445 0
613 -446 0
-611 -604 -597 612 0
611 -520 0
611 -521 0
611 -605 0
611 -606 0
611 -607 0
611 -608 0
611 -609 0
611 -87 0
611 -610 0
611 -77 0
611 -76 0
611 -63 0
611 -62 0
611 -60 0
611 -58 0
-12 -30 610 0
-9 -67 609 0
-21 -68 608 0
9 -64 607 0
21 -65 606 0
-27 12 605 0
604 -513 0
604 -598 0
604 -599 0
604 -600 0
604 -601 0
604 -602 0
604 -516 0
604 -603 0
604 -86 0
604 -74 0
604 -73 0
604 -50 0
604 -49 0
604 -47 0
604 -45 0
-9 -54 603 0
-12 -28 602 0
-26 12 601 0
-21 -55 600 0
9 -51 599 0
21 -52 598 0
597 -528 0
597 -591 0
597 -592 0
597 -593 0
597 -594 0
597 -530 0
597 -595 0
597 -596 0
597 -85 0
597 -71 0
597 -70 0
597 -37 0
597 -36 0
597 -34 0
597 -32 0
-9 -41 596 0
-12 -29 595 0
-38 9 594 0
-21 -42 593 0
-39 21 592 0
-25 12 591 0
-589 -588 -587 -586 -533 590 0
589 -491 0
589 -443 0
589 -444 0
589 -445 0
589 -446 0
588 -442 0
588 -585 0
588 -443 0
588 -444 0
588 -445 0
588 -446 0
587 -532 0
587 -508 0
587 -443 0
587 -444 0
587 -445 0
587 -446 0
586 -569 0
586 -585 0
586 -443 0
586 -444 0
586 -445 0
586 -446 0
-584 -579 -574 585 0
584 -580 0
584 -581 0
584 -582 0
584 -484 0
584 -488 0
584 -410 0
584 -412 0
584 -81 0
584 -78 0
584 -77 0
584 -76 0
584 -63 0
584 -61 0
584 -60 0
584 -583 0
-15 -30 583 0
-18 -68 582 0
18 -65 581 0
-27 15 580 0
579 -575 0
579 -576 0
579 -577 0
579 -400 0
579 -477 0
579 -480 0
579 -403 0
579 -80 0
579 -75 0
579 -74 0
579 -73 0
579 -50 0
579 -48 0
579 -47 0
579 -578 0
-15 -28 578 0
-18 -55 577 0
18 -52 576 0
-26 15 575 0
574 -570 0
574 -571 0
574 -572 0
574 -390 0
574 -470 0
574 -473 0
574 -393 0
574 -573 0
574 -79 0
574 -72 0
574 -71 0
574 -70 0
574 -37 0
574 -35 0
574 -34 0
-25 15 573 0
-18 -42 572 0
-15 -29 571 0
-39 18 570 0
-568 -567 -550 569 0
568 -442 0
568 -443 0
568 -444 0
568 -445 0
568 -446 0
567 -566 0
567 -491 0
567 -443 0
567 -444 0
567 -445 0
567 -446 0
-565 -560 -555 566 0
565 -561 0
565 -562 0
565 -563 0
565 -564 0
565 -433 0
565 -458 0
565 -459 0
565 -437 0
565 -84 0
565 -81 0
565 -77 0
565 -76 0
565 -62 0
565 -61 0
565 -60 0
-15 -68 564 0
-18 -30 563 0
15 -65 562 0
-27 18 561 0
560 -556 0
560 -557 0
560 -558 0
560 -424 0
560 -425 0
560 -451 0
560 -452 0
560 -559 0
560 -83 0
560 -80 0
560 -74 0
560 -73 0
560 -49 0
560 -48 0
560 -47 0
-18 -28 559 0
-15 -55 558 0
15 -52 557 0
-26 18 556 0
555 -551 0
555 -552 0
555 -415 0
555 -463 0
555 -553 0
555 -467 0
555 -421 0
555 -554 0
555 -82 0
555 -79 0
555 -71 0
555 -70 0
555 -36 0
555 -35 0
555 -34 0
-25 18 554 0
-18 -29 553 0
-15 -42 552 0
-39 15 551 0
550 -549 0
550 -508 0
550 -443 0
550 -444 0
550 -445 0
550 -446 0
-548 -543 -538 549 0
548 -544 0
548 -545 0
548 -433 0
548 -520 0
548 -521 0
548 -437 0
548 -87 0
548 -546 0
548 -81 0
548 -78 0
548 -77 0
548 -76 0
548 -63 0
548 -60 0
548 -547 0
-20 -30 547 0
-23 -68 546 0
23 -65 545 0
-27 20 544 0
543 -539 0
543 -540 0
543 -424 0
543 -425 0
543 -513 0
543 -541 0
543 -516 0
543 -86 0
543 -80 0
543 -75 0
543 -74 0
543 -73 0
543 -50 0
543 -47 0
543 -542 0
-20 -28 542 0
-23 -55 541 0
23 -52 540 0
-26 20 539 0
538 -534 0
538 -535 0
538 -536 0
538 -415 0
538 -528 0
538 -530 0
538 -421 0
538 -537 0
538 -85 0
538 -79 0
538 -72 0
538 -71 0
538 -70 0
538 -37 0
538 -34 0
-25 20 537 0
-23 -42 536 0
-20 -29 535 0
-39 23 534 0
533 -510 0
533 -532 0
533 -443 0
533 -444 0
533 -445 0
533 -446 0
-531 -524 -517 532 0
531 -525 0
531 -526 0
531 -527 0
531 -528 0
531 -470 0
531 -473 0
531 -529 0
531 -530 0
531 -85 0
531 -79 0
531 -71 0
531 -70 0
531 -37 0
531 -36 0
531 -34 0
-24 -43 530 0
-22 -42 529 0
24 -40 528 0
-16 -29 527 0
-39 22 526 0
-25 16 525 0
524 -518 0
524 -519 0
524 -520 0
524 -521 0
524 -484 0
524 -522 0
524 -488 0
524 -87 0
524 -523 0
524 -81 0
524 -77 0
524 -76 0
524 -63 0
524 -62 0
524 -60 0
-22 -68 523 0
-27 16 522 0
-24 -69 521 0
24 -66 520 0
-16 -30 519 0
22 -65 518 0
517 -511 0
517 -512 0
517 -513 0
517 -477 0
517 -480 0
517 -514 0
517 -515 0
517 -516 0
517 -86 0
517 -80 0
517 -74 0
517 -73 0
517 -50 0
517 -49 0
517 -47 0
-24 -56 516 0
-16 -28 515 0
-22 -55 514 0
24 -53 513 0
22 -52 512 0
-26 16 511 0
-509 -492 -447 510 0
509 -508 0
509 -443 0
509 -444 0
509 -445 0
509 -446 0
-507 -502 -497 508 0
507 -409 0
507 -503 0
507 -504 0
507 -435 0
507 -436 0
507 -505 0
507 -90 0
507 -411 0
507 -506 0
507 -81 0
507 -76 0
507 -63 0
507 -62 0
507 -61 0
507 -59 0
-12 -68 506 0
12 -65 505 0
-21 -30 504 0
-27 21 503 0
502 -401 0
502 -402 0
502 -498 0
502 -499 0
502 -500 0
502 -428 0
502 -501 0
502 -89 0
502 -431 0
502 -80 0
502 -73 0
502 -50 0
502 -49 0
502 -48 0
502 -46 0
-12 -55 501 0
-21 -28 500 0
12 -52 499 0
-26 21 498 0
497 -391 0
497 -392 0
497 -493 0
497 -494 0
497 -418 0
497 -419 0
497 -495 0
497 -496 0
497 -88 0
497 -79 0
497 -70 0
497 -37 0
497 -36 0
497 -35 0
497 -33 0
-39 12 496 0
-12 -42 495 0
-21 -29 494 0
-25 21 493 0
492 -469 0
492 -491 0
492 -443 0
492 -444 0
492 -445 0
492 -446 0
-490 -483 -476 491 0
490 -435 0
490 -436 0
490 -484 0
490 -485 0
490 -486 0
490 -487 0
490 -488 0
490 -489 0
490 -84 0
490 -81 0
490 -76 0
490 -62 0
490 -61 0
490 -60 0
490 -59 0
-10 -68 489 0
-14 -67 488 0
-13 -30 487 0
10 -65 486 0
-27 13 485 0
14 -64 484 0
483 -428 0
483 -477 0
483 -478 0
483 -479 0
483 -480 0
483 -481 0
483 -482 0
483 -431 0
483 -83 0
483 -80 0
483 -73 0
483 -49 0
483 -48 0
483 -47 0
483 -46 0
-10 -55 482 0
-13 -28 481 0
-14 -54 480 0
10 -52 479 0
-26 13 478 0
14 -51 477 0
476 -418 0
476 -419 0
476 -470 0
476 -471 0
476 -472 0
476 -473 0
476 -474 0
476 -475 0
476 -82 0
476 -79 0
476 -70 0
476 -36 0
476 -35 0
476 -34 0
476 -33 0
-10 -42 475 0
-13 -29 474 0
-14 -41 473 0
-39 10 472 0
-25 13 471 0
-38 14 470 0
-468 -461 -454 469 0
468 -462 0
468 -391 0
468 -392 0
468 -463 0
468 -464 0
468 -465 0
468 -466 0
468 -467 0
468 -88 0
468 -79 0
468 -71 0
468 -70 0
468 -37 0
468 -36 0
468 -35 0
-14 -43 467 0
-25 22 466 0
-39 16 465 0
-16 -42 464 0
14 -40 463 0
-22 -29 462 0
461 -455 0
461 -456 0
461 -457 0
461 -409 0
461 -458 0
461 -459 0
461 -90 0
461 -411 0
461 -460 0
461 -81 0
461 -77 0
461 -76 0
461 -63 0
461 -62 0
461 -61 0
-22 -30 460 0
14 -66 459 0
-14 -69 458 0
-16 -68 457 0
16 -65 456 0
-27 22 455 0
454 -448 0
454 -449 0
454 -450 0
454 -401 0
454 -402 0
454 -451 0
454 -452 0
454 -453 0
454 -89 0
454 -80 0
454 -74 0
454 -73 0
454 -50 0
454 -49 0
454 -48 0
-22 -28 453 0
-14 -56 452 0
14 -53 451 0
-16 -55 450 0
16 -52 449 0
-26 22 448 0
447 -414 0
447 -442 0
447 -443 0
447 -444 0
447 -445 0
447 -446 0
-27 26 446 0
-29 28 445 0
-26 25 444 0
-28 30 443 0
-441 -432 -423 442 0
441 -433 0
441 -434 0
441 -435 0
441 -436 0
441 -437 0
441 -438 0
441 -439 0
441 -440 0
441 -81 0
441 -76 0
441 -63 0
441 -62 0
441 -61 0
441 -60 0
441 -59 0
-17 -30 440 0
-11 -68 439 0
-27 17 438 0
19 -64 437 0
-9 -69 436 0
9 -66 435 0
11 -65 434 0
-19 -67 433 0
432 -424 0
432 -425 0
432 -426 0
432 -427 0
432 -428 0
432 -429 0
432 -430 0
432 -431 0
432 -80 0
432 -73 0
432 -50 0
432 -49 0
432 -48 0
432 -47 0
432 -46 0
-9 -56 431 0
-11 -55 430 0
-17 -28 429 0
9 -53 428 0
11 -52 427 0
-26 17 426 0
-19 -54 425 0
19 -51 424 0
423 -415 0
423 -416 0
423 -417 0
423 -418 0
423 -419 0
423 -420 0
423 -421 0
423 -422 0
423 -79 0
423 -70 0
423 -37 0
423 -36 0
423 -35 0
423 -34 0
423 -33 0
-11 -42 422 0
-19 -41 421 0
-39 11 420 0
-9 -43 419 0
9 -40 418 0
-17 -29 417 0
-25 17 416 0
-38 19 415 0
-413 -404 -395 414 0
413 -405 0
413 -406 0
413 -407 0
413 -408 0
413 -409 0
413 -410 0
413 -90 0
413 -411 0
413 -412 0
413 -84 0
413 -81 0
413 -77 0
413 -76 0
413 -62 0
413 -61 0
-19 -69 412 0
-24 -67 411 0
19 -66 410 0
24 -64 409 0
-20 -68 408 0
-23 -30 407 0
20 -65 406 0
-27 23 405 0
404 -396 0
404 -397 0
404 -398 0
404 -399 0
404 -400 0
404 -401 0
404 -402 0
404 -403 0
404 -89 0
404 -83 0
404 -80 0
404 -74 0
404 -73 0
404 -49 0
404 -48 0
-19 -56 403 0
-24 -54 402 0
24 -51 401 0
19 -53 400 0
-20 -55 399 0
-23 -28 398 0
20 -52 397 0
-26 23 396 0
395 -387 0
395 -388 0
395 -389 0
395 -390 0
395 -391 0
395 -392 0
395 -393 0
395 -394 0
395 -88 0
395 -82 0
395 -79 0
395 -71 0
395 -70 0
395 -36 0
395 -35 0
-39 20 394 0
-19 -43 393 0
-24 -41 392 0
-38 24 391 0
19 -40 390 0
-20 -42 389 0
-23 -29 388 0
-25 23 387 0
13 9 24 23 22 21 20 19 18 17 16 15 14 12 11 10 -385 386 0
385 -363 0
385 -382 0
385 -383 0
385 -384 0
385 -356 0
385 -357 0
385 -358 0
-150 -149 -148 -147 -236 -354 384 0
-150 -149 -148 -147 -195 -364 383 0
-381 -367 382 0
381 -372 0
381 -377 0
381 -378 0
381 -379 0
381 -380 0
-150 -149 -148 -147 -236 380 0
-150 -149 -148 -147 -195 -316 379 0
-150 -149 -148 -147 -289 -253 378 0
-150 -149 -148 -147 -289 -376 377 0
376 -373 0
376 -374 0
376 -375 0
-150 -149 -148 -147 -253 375 0
-150 -149 -148 -147 -146 -316 374 0
-150 -149 -148 -147 -236 -270 373 0
-150 -149 -148 -147 -195 -371 372 0
371 -368 0
371 -369 0
371 -370 0
-150 -149 -148 -147 -316 370 0
-150 -149 -148 -147 -253 -351 369 0
-150 -149 -148 -147 -236 -333 368 0
367 -365 0
367 -366 0
367 -335 0
367 -352 0
367 -353 0
-150 -149 -148 -147 -173 -359 366 0
-150 -149 -148 -147 -212 -364 365 0
364 -317 0
364 -334 0
364 -361 0
-362 -294 363 0
362 -317 0
362 -334 0
362 -355 0
362 -360 0
362 -361 0
-150 -149 -148 -147 -351 361 0
-150 -149 -148 -147 -333 -359 360 0
359 -356 0
359 -357 0
359 -358 0
-150 -149 -148 -147 -289 358 0
-150 -149 -148 -147 -195 -351 357 0
-150 -149 -148 -147 -236 -118 356 0
-150 -149 -148 -147 -316 -354 355 0
354 -335 0
354 -352 0
354 -353 0
-150 -149 -148 -147 -118 353 0
-150 -149 -148 -147 -212 -351 352 0
351 -340 0
351 -345 0
351 -350 0
61 76 63 62 60 58 77 -349 -348 -116 -313 -114 -311 -347 -346 350 0
349 30 0
349 11 0
348 27 0
348 -11 0
347 68 0
347 17 0
346 65 0
346 -17 0
50 49 48 45 74 47 73 -307 -107 -344 -343 -303 -342 -341 -104 345 0
344 26 0
344 -11 0
343 28 0
343 11 0
342 55 0
342 17 0
341 52 0
341 -17 0
32 35 37 36 34 71 70 -339 -300 -97 -298 -338 -337 -336 -94 340 0
339 29 0
339 11 0
338 42 0
338 17 0
337 39 0
337 -17 0
336 25 0
336 -11 0
-150 -149 -148 -147 -289 -173 335 0
-150 -149 -148 -147 -289 -333 334 0
333 -322 0
333 -327 0
333 -332 0
61 76 63 60 58 78 77 -313 -331 -330 -163 -329 -328 -311 -162 332 0
331 68 0
331 13 0
330 30 0
330 10 0
329 65 0
329 -13 0
328 27 0
328 -10 0
50 48 45 75 74 47 73 -307 -326 -325 -156 -324 -155 -323 -303 327 0
326 26 0
326 -10 0
325 55 0
325 13 0
324 28 0
324 10 0
323 52 0
323 -13 0
32 35 37 34 72 71 70 -300 -171 -321 -320 -167 -319 -318 -298 322 0
321 42 0
321 13 0
320 29 0
320 10 0
319 39 0
319 -13 0
318 25 0
318 -10 0
-150 -149 -148 -147 -118 -316 317 0
316 -301 0
316 -308 0
316 -315 0
76 63 62 60 58 77 -314 87 -313 -312 -311 -310 -309 -225 -224 315 0
314 30 0
314 12 0
313 67 0
313 9 0
312 68 0
312 21 0
311 64 0
311 -9 0
310 65 0
310 -21 0
309 27 0
309 -12 0
50 49 45 74 47 73 86 -307 -220 -306 -305 -304 -303 -302 -217 308 0
307 54 0
307 9 0
306 28 0
306 12 0
305 26 0
305 -12 0
304 55 0
304 21 0
303 51 0
303 -9 0
302 52 0
302 -21 0
32 37 36 34 71 70 85 -300 -299 -234 -298 -297 -296 -295 -232 301 0
300 41 0
300 9 0
299 29 0
299 12 0
298 38 0
298 -9 0
297 42 0
297 21 0
296 39 0
296 -21 0
295 25 0
295 -12 0
294 -237 0
294 -290 0
294 -291 0
294 -292 0
294 -293 0
-150 -149 -148 -147 -195 293 0
-150 -149 -148 -147 -289 -146 292 0
-150 -149 -148 -147 -212 -236 291 0
-150 -149 -148 -147 -289 -273 290 0
289 -278 0
289 -283 0
289 -288 0
-287 61 76 81 63 60 78 77 -116 -114 -192 -188 -286 -285 -284 288 0
287 30 0
287 15 0
286 68 0
286 18 0
285 65 0
285 -18 0
284 27 0
284 -15 0
-282 50 48 75 74 47 73 80 -107 -184 -181 -104 -281 -280 -279 283 0
282 28 0
282 15 0
281 55 0
281 18 0
280 52 0
280 -18 0
279 26 0
279 -15 0
35 37 34 79 72 71 70 -277 -97 -177 -174 -94 -276 -275 -274 278 0
277 25 0
277 -15 0
276 42 0
276 18 0
275 29 0
275 15 0
274 39 0
274 -18 0
273 -254 0
273 -271 0
273 -272 0
-150 -149 -148 -147 -146 272 0
-150 -149 -148 -147 -195 -270 271 0
270 -259 0
270 -264 0
270 -269 0
61 76 81 62 60 77 84 -141 -163 -162 -137 -268 -267 -266 -265 269 0
268 68 0
268 15 0
267 30 0
267 18 0
266 65 0
266 -15 0
265 27 0
265 -18 0
49 48 74 47 73 83 80 -263 -156 -155 -129 -128 -262 -261 -260 264 0
263 28 0
263 18 0
262 55 0
262 15 0
261 52 0
261 -15 0
260 26 0
260 -18 0
35 36 34 79 71 70 82 -258 -125 -171 -257 -167 -119 -256 -255 259 0
258 25 0
258 -18 0
257 29 0
257 18 0
256 42 0
256 15 0
255 39 0
255 -15 0
-150 -149 -148 -147 -212 -253 254 0
253 -242 0
253 -247 0
253 -252 0
-251 76 81 63 60 78 77 -250 87 -141 -225 -224 -137 -249 -248 252 0
251 30 0
251 20 0
250 68 0
250 23 0
249 65 0
249 -23 0
248 27 0
248 -20 0
-246 50 75 74 47 73 86 80 -220 -245 -217 -129 -128 -244 -243 247 0
246 28 0
246 20 0
245 55 0
245 23 0
244 52 0
244 -23 0
243 26 0
243 -20 0
37 34 79 72 71 70 85 -241 -125 -234 -232 -119 -240 -239 -238 242 0
241 25 0
241 -20 0
240 42 0
240 23 0
239 29 0
239 20 0
238 39 0
238 -23 0
-150 -149 -148 -147 -236 -214 237 0
236 -221 0
236 -228 0
236 -235 0
37 36 34 79 71 70 85 -234 -233 -177 -174 -232 -231 -230 -229 235 0
234 43 0
234 24 0
233 42 0
233 22 0
232 40 0
232 -24 0
231 29 0
231 16 0
230 39 0
230 -22 0
229 25 0
229 -16 0
76 81 63 62 60 77 -227 87 -192 -226 -188 -225 -224 -223 -222 228 0
227 68 0
227 22 0
226 27 0
226 -16 0
225 69 0
225 24 0
224 66 0
224 -24 0
223 30 0
223 16 0
222 65 0
222 -22 0
50 49 74 47 73 86 80 -220 -219 -218 -184 -181 -217 -216 -215 221 0
220 56 0
220 24 0
219 28 0
219 16 0
218 55 0
218 22 0
217 53 0
217 -24 0
216 52 0
216 -22 0
215 26 0
215 -16 0
214 -151 0
214 -196 0
214 -213 0
-150 -149 -148 -147 -212 213 0
212 -201 0
212 -206 0
212 -211 0
61 76 81 63 62 59 -210 -115 90 -209 -140 -139 -208 -207 -113 211 0
210 68 0
210 12 0
209 65 0
209 -12 0
208 30 0
208 21 0
207 27 0
207 -21 0
50 49 48 46 73 80 -135 89 -205 -132 -204 -203 -202 -106 -105 206 0
205 55 0
205 12 0
204 28 0
204 21 0
203 52 0
203 -12 0
202 26 0
202 -21 0
33 35 37 36 79 70 88 -200 -199 -123 -122 -198 -197 -96 -95 201 0
200 39 0
200 -12 0
199 42 0
199 12 0
198 29 0
198 21 0
197 25 0
197 -21 0
-150 -149 -148 -147 -195 -173 196 0
195 -180 0
195 -187 0
195 -194 0
61 76 81 62 60 59 84 -193 -192 -191 -190 -189 -188 -140 -139 194 0
193 68 0
193 10 0
192 67 0
192 14 0
191 30 0
191 13 0
190 65 0
190 -10 0
189 27 0
189 -13 0
188 64 0
188 -14 0
49 48 46 47 73 83 80 -135 -186 -185 -184 -183 -182 -181 -132 187 0
186 55 0
186 10 0
185 28 0
185 13 0
184 54 0
184 14 0
183 52 0
183 -10 0
182 26 0
182 -13 0
181 51 0
181 -14 0
33 35 36 34 79 70 82 -179 -178 -177 -176 -175 -174 -123 -122 180 0
179 42 0
179 10 0
178 29 0
178 13 0
177 41 0
177 14 0
176 39 0
176 -10 0
175 25 0
175 -13 0
174 38 0
174 -14 0
173 -158 0
173 -165 0
173 -172 0
35 37 36 79 71 70 88 -171 -170 -169 -168 -167 -96 -95 -166 172 0
171 43 0
171 14 0
170 25 0
170 -22 0
169 39 0
169 -16 0
168 42 0
168 16 0
167 40 0
167 -14 0
166 29 0
166 22 0
61 76 81 63 62 77 -164 -115 90 -163 -162 -113 -161 -160 -159 165 0
164 30 0
164 22 0
163 66 0
163 -14 0
162 69 0
162 14 0
161 68 0
161 16 0
160 65 0
160 -16 0
159 27 0
159 -22 0
50 49 48 74 73 80 89 -157 -156 -155 -106 -105 -154 -153 -152 158 0
157 28 0
157 22 0
156 56 0
156 14 0
155 53 0
155 -14 0
154 55 0
154 16 0
153 52 0
153 -16 0
152 26 0
152 -22 0
-150 -149 -148 -147 -146 -118 151 0
150 27 0
150 -26 0
149 29 0
149 -28 0
148 26 0
148 -25 0
147 28 0
147 -30 0
146 -127 0
146 -136 0
146 -145 0
61 76 81 63 62 60 59 -144 -143 -142 -141 -140 -139 -138 -137 145 0
144 30 0
144 17 0
143 68 0
143 11 0
142 27 0
142 -17 0
141 64 0
141 -19 0
140 69 0
140 9 0
139 66 0
139 -9 0
138 65 0
138 -11 0
137 67 0
137 19 0
50 49 48 46 47 73 80 -135 -134 -133 -132 -131 -130 -129 -128 136 0
135 56 0
135 9 0
134 55 0
134 11 0
133 28 0
133 17 0
132 53 0
132 -9 0
131 52 0
131 -11 0
130 26 0
130 -17 0
129 54 0
129 19 0
128 51 0
128 -19 0
33 35 37 36 34 79 70 -126 -125 -124 -123 -122 -121 -120 -119 127 0
126 42 0
126 11 0
125 41 0
125 19 0
124 39 0
124 -11 0
123 43 0
123 9 0
122 40 0
122 -9 0
121 29 0
121 17 0
120 25 0
120 -17 0
119 38 0
119 -19 0
118 -99 0
118 -108 0
118 -117 0
61 76 81 62 77 84 -116 -115 90 -114 -113 -112 -111 -110 -109 117 0
116 69 0
116 19 0
115 67 0
115 24 0
114 66 0
114 -19 0
113 64 0
113 -24 0
112 68 0
112 20 0
111 30 0
111 23 0
110 65 0
110 -20 0
109 27 0
109 -23 0
49 48 74 73 83 80 89 -107 -106 -105 -104 -103 -102 -101 -100 108 0
107 56 0
107 19 0
106 54 0
106 24 0
105 51 0
105 -24 0
104 53 0
104 -19 0
103 55 0
103 20 0
102 28 0
102 23 0
101 52 0
101 -20 0
100 26 0
100 -23 0
35 36 79 71 70 82 88 -98 -97 -96 -95 -94 -93 -92 -91 99 0
98 39 0
98 -20 0
97 43 0
97 19 0
96 41 0
96 24 0
95 38 0
95 -24 0
94 40 0
94 -19 0
93 42 0
93 20 0
92 29 0
92 23 0
91 25 0
91 -23 0
